Traveling Salesman Problem/TSP_generados/Aleatorio1621103335_10.tsp
NAME: Aleatorio1621103335_10.tsp
COMMENT: Randomly generated scenario
TYPE: TSP
DIMENSION: 10
EDGE_WEIGHT_TYPE: ATT
NODE_COORD_SECTION
1 47.0 16.56
2 8.55 31.68
3 12.62 35.67
4 28.24 25.08
5 5.43 1.92
6 49.22 11.24
7 46.32 16.11
8 28.98 3.15
9 2.07 44.55
10 28.62 1.55
