Traveling Salesman Problem/TSP_generados/Aleatorio1621103335_10.opt.tour
NAME: Aleatorio1621103335_10.opt.tour
COMMENT: Optimal solution for Aleatorio1621103335_10 (150.38633973465252)
TYPE: TOUR
DIMENSION: 10
TOUR_SECTION
1 6 8 10 5 2 9 3 4 7
-1
EOF
